c turning on binary mode checking
c parsing input formula with 259840 variables and 1039919 clauses
c finished parsing, read 23255291 bytes from proof file
c detected empty clause; start verification via backward checking
c 8457 of 1039919 clauses in core                            
c 10357 of 603679 lemmas in core using 69802 resolution steps
c 0 RAT lemmas in core; 628 redundant literals in core lemmas
s VERIFIED
c verification time: 2.789 seconds
